sat
(:max-memory         18.52
 :memory             18.42
 :nlsat-arith-var    3
 :nlsat-atoms        15
 :nlsat-bool-var     2
 :nlsat-clauses      9
 :nlsat-conflicts    4
 :nlsat-decisions    2
 :nlsat-propagations 24
 :nlsat-stages       7
 :num-allocs         66465
 :rlimit-count       19354
 :time               0.01
 :total-time         0.02)
